Traveling Salesman Problem/TSP_generados/Aleatorio1620391098_14.tsp
NAME: Aleatorio1620391098_14.tsp
COMMENT: Randomly generated scenario
TYPE: TSP
DIMENSION: 14
EDGE_WEIGHT_TYPE: ATT
NODE_COORD_SECTION
1 32.77 40.93
2 43.04 39.28
3 10.59 39.81
4 0.95 18.04
5 16.55 4.86
6 16.81 41.97
7 17.34 38.49
8 27.7 16.31
9 14.94 47.0
10 22.27 24.03
11 26.12 0.29
12 35.76 47.16
13 49.43 47.11
14 45.84 24.27
