Traveling Salesman Problem/TSP_generados/Aleatorio1620391098_14.opt.tour
NAME: Aleatorio1620391098_14.opt.tour
COMMENT: Optimal solution for Aleatorio1620391098_14 (182.81130633297124)
TYPE: TOUR
DIMENSION: 14
TOUR_SECTION
1 12 13 2 14 10 8 11 5 4 3 9 6 7
-1
EOF
